28

O      -3.599658      1.295651      0.006418
N       5.041531     -0.046772     -0.062669
C       0.841580     -0.543530     -0.003492
C       1.410119      0.772824     -0.005566
C      -0.565280     -0.693171     -0.000891
C       2.815428      0.922109     -0.002607
C       0.522613      1.888087     -0.004061
C       1.724630     -1.657907     -0.003178
C      -1.409127      0.406198     -0.000103
C       3.657381     -0.181641     -0.004411
C      -0.837257      1.711357     -0.001561
C       3.085859     -1.488711     -0.005458
C      -2.898936      0.291892      0.002679
C      -3.537311     -1.097054      0.000584
C      -5.064425     -1.050531      0.003526
H      -0.969383     -1.701869      0.000311
H       3.238129      1.924927     -0.003039
H       0.944476      2.890560     -0.005958
H       1.304095     -2.660904     -0.001316
H      -1.515229      2.558330     -0.001037
H       3.746178     -2.352935     -0.015319
H       5.574040     -0.817873      0.319380
H       5.406158      0.850320      0.231536
H      -3.165640     -1.652483      0.873282
H      -3.168752     -1.648121     -0.876216
H      -5.441870     -0.519556     -0.875121
H      -5.438551     -0.523330      0.885898
H      -5.478756     -2.064393      0.002162
