30

 C                 -0.48086356   -0.13604771   -0.06372524
 C                 -0.28791810    1.24835694   -0.09008474
 C                 -1.78270127   -0.65021997   -0.08839005
 C                 -1.39577959    2.10199568   -0.14064665
 N                  0.94993695    1.74683752   -0.06690863
 O                  0.54213121   -0.94389224   -0.01655763
 C                 -2.84494849    0.19300165   -0.13753014
 H                 -1.94028109   -1.70836955   -0.06850012
 C                 -2.64945949    1.58389437   -0.16390943
 H                 -1.25418211    3.16238604   -0.16094777
 C                  1.98469572    0.90524251   -0.01875693
 C                  1.75874626   -0.47417604    0.00661565
 N                 -4.20961131   -0.35285994   -0.16330441
 H                 -3.49469359    2.23884761   -0.20258931
 C                  3.29597946    1.39364537    0.00655919
 C                  2.84998788   -1.34965200    0.05716884
 C                 -4.20022791   -1.66477391   -0.82640065
 C                 -4.70330114   -0.50316574    1.21318104
 C                  4.34003980    0.52864370    0.05555053
 H                  3.47495937    2.44839984   -0.01270108
 C                  4.11459399   -0.85772422    0.08113796
 H                  2.68694307   -2.40696756    0.07690844
 H                 -5.19355180   -2.06210205   -0.84507551
 H                 -3.84093309   -1.55545028   -1.82833992
 H                 -3.55936547   -2.33170558   -0.28846579
 H                 -5.69668395   -0.90031633    1.19442256
 H                 -4.70999339    0.45172857    1.69595590
 H                 -4.06258319   -1.17027433    1.75104071
 H                  5.34156668    0.90480101    0.07481997
 O                  5.09205101   -1.64897577    0.12660099


